
Gurobi 8.1.1 (win64, Python) logging started 10/10/19 12:27:19

Academic license - for non-commercial use only

Gurobi 8.1.1 (win64, Python) logging started 10/10/19 12:48:13

Academic license - for non-commercial use only

Gurobi 8.1.1 (win64, Python) logging started 10/10/19 12:48:41

Academic license - for non-commercial use only
Optimize a model with 7 rows, 5 columns and 19 nonzeros
Variable types: 3 continuous, 2 integer (2 binary)
Coefficient statistics:
  Matrix range     [5e-09, 4e+00]
  Objective range  [1e+00, 1e+00]
  Bounds range     [1e+00, 4e+00]
  RHS range        [9e-09, 8e+00]
Presolve removed 0 rows and 1 columns
Presolve time: 0.00s

Explored 0 nodes (0 simplex iterations) in 0.03 seconds
Thread count was 1 (of 4 available processors)

Solution count 0

Model is infeasible or unbounded
Best objective -, best bound -, gap -
Optimize a model with 7 rows, 5 columns and 19 nonzeros
Variable types: 3 continuous, 2 integer (2 binary)
Coefficient statistics:
  Matrix range     [5e-09, 4e+00]
  Objective range  [1e+00, 1e+00]
  Bounds range     [1e+00, 4e+00]
  RHS range        [9e-09, 8e+00]
Presolve removed 0 rows and 1 columns
Presolve time: 0.00s

Explored 0 nodes (0 simplex iterations) in 0.04 seconds
Thread count was 1 (of 4 available processors)

Solution count 0

Model is infeasible or unbounded
Best objective -, best bound -, gap -
Optimize a model with 7 rows, 5 columns and 19 nonzeros
Variable types: 3 continuous, 2 integer (2 binary)
Coefficient statistics:
  Matrix range     [5e-09, 4e+00]
  Objective range  [1e+00, 1e+00]
  Bounds range     [1e+00, 4e+00]
  RHS range        [9e-09, 8e+00]
Presolve removed 0 rows and 1 columns
Presolve time: 0.00s

Explored 0 nodes (0 simplex iterations) in 0.03 seconds
Thread count was 1 (of 4 available processors)

Solution count 0

Model is infeasible or unbounded
Best objective -, best bound -, gap -

Gurobi 8.1.1 (win64, Python) logging started 10/10/19 13:06:17

Academic license - for non-commercial use only
Optimize a model with 8 rows, 5 columns and 21 nonzeros
Variable types: 3 continuous, 2 integer (2 binary)
Coefficient statistics:
  Matrix range     [5e-09, 4e+00]
  Objective range  [1e+00, 1e+00]
  Bounds range     [1e+00, 4e+00]
  RHS range        [9e-09, 8e+00]
Presolve time: 0.00s

Explored 0 nodes (0 simplex iterations) in 0.02 seconds
Thread count was 1 (of 4 available processors)

Solution count 0

Model is infeasible or unbounded
Best objective -, best bound -, gap -
Optimize a model with 8 rows, 5 columns and 21 nonzeros
Variable types: 3 continuous, 2 integer (2 binary)
Coefficient statistics:
  Matrix range     [5e-09, 4e+00]
  Objective range  [1e+00, 1e+00]
  Bounds range     [1e+00, 4e+00]
  RHS range        [9e-09, 8e+00]
Presolve removed 3 rows and 1 columns
Presolve time: 0.01s
Presolved: 5 rows, 4 columns, 12 nonzeros
Variable types: 3 continuous, 1 integer (1 binary)

Root relaxation: objective 5.000000e+00, 3 iterations, 0.00 seconds

    Nodes    |    Current Node    |     Objective Bounds      |     Work
 Expl Unexpl |  Obj  Depth IntInf | Incumbent    BestBd   Gap | It/Node Time

     0     0    5.00000    0    1          -    5.00000      -     -    0s
H    0     0                       5.0000000    5.00000  0.00%     -    0s

Explored 1 nodes (3 simplex iterations) in 0.09 seconds
Thread count was 4 (of 4 available processors)

Solution count 1: 5 

Optimal solution found (tolerance 1.00e-04)
Best objective 5.000000003306e+00, best bound 5.000000003306e+00, gap 0.0000%

Gurobi 8.1.1 (win64, Python) logging started 10/10/19 13:08:19

Academic license - for non-commercial use only
Optimize a model with 8 rows, 5 columns and 21 nonzeros
Variable types: 3 continuous, 2 integer (2 binary)
Coefficient statistics:
  Matrix range     [5e-09, 4e+00]
  Objective range  [1e+00, 1e+00]
  Bounds range     [1e+00, 4e+00]
  RHS range        [9e-09, 8e+00]
Presolve removed 3 rows and 1 columns
Presolve time: 0.00s
Presolved: 5 rows, 4 columns, 12 nonzeros
Variable types: 3 continuous, 1 integer (1 binary)

Root relaxation: objective 5.000000e+00, 3 iterations, 0.00 seconds

    Nodes    |    Current Node    |     Objective Bounds      |     Work
 Expl Unexpl |  Obj  Depth IntInf | Incumbent    BestBd   Gap | It/Node Time

     0     0    5.00000    0    1          -    5.00000      -     -    0s
H    0     0                       5.0000000    5.00000  0.00%     -    0s

Explored 1 nodes (3 simplex iterations) in 0.07 seconds
Thread count was 4 (of 4 available processors)

Solution count 1: 5 

Optimal solution found (tolerance 1.00e-04)
Best objective 5.000000003306e+00, best bound 5.000000003306e+00, gap 0.0000%

Gurobi 8.1.1 (win64, Python) logging started 10/10/19 13:08:50

Academic license - for non-commercial use only
Optimize a model with 8 rows, 5 columns and 21 nonzeros
Variable types: 3 continuous, 2 integer (2 binary)
Coefficient statistics:
  Matrix range     [5e-09, 4e+00]
  Objective range  [1e+00, 1e+00]
  Bounds range     [1e+00, 4e+00]
  RHS range        [9e-09, 8e+00]
Presolve removed 3 rows and 1 columns
Presolve time: 0.00s
Presolved: 5 rows, 4 columns, 12 nonzeros
Variable types: 3 continuous, 1 integer (1 binary)

Root relaxation: objective 5.000000e+00, 3 iterations, 0.00 seconds

    Nodes    |    Current Node    |     Objective Bounds      |     Work
 Expl Unexpl |  Obj  Depth IntInf | Incumbent    BestBd   Gap | It/Node Time

     0     0    5.00000    0    1          -    5.00000      -     -    0s
H    0     0                       5.0000000    5.00000  0.00%     -    0s

Explored 1 nodes (3 simplex iterations) in 0.06 seconds
Thread count was 4 (of 4 available processors)

Solution count 1: 5 

Optimal solution found (tolerance 1.00e-04)
Best objective 5.000000003306e+00, best bound 5.000000003306e+00, gap 0.0000%

Gurobi 8.1.1 (win64, Python) logging started 10/10/19 13:09:16

Academic license - for non-commercial use only
Optimize a model with 8 rows, 5 columns and 21 nonzeros
Variable types: 3 continuous, 2 integer (2 binary)
Coefficient statistics:
  Matrix range     [5e-09, 4e+00]
  Objective range  [1e+00, 1e+00]
  Bounds range     [1e+00, 4e+00]
  RHS range        [9e-09, 8e+00]
Presolve removed 3 rows and 1 columns
Presolve time: 0.00s
Presolved: 5 rows, 4 columns, 12 nonzeros
Variable types: 3 continuous, 1 integer (1 binary)

Root relaxation: objective 5.000000e+00, 3 iterations, 0.00 seconds

    Nodes    |    Current Node    |     Objective Bounds      |     Work
 Expl Unexpl |  Obj  Depth IntInf | Incumbent    BestBd   Gap | It/Node Time

     0     0    5.00000    0    1          -    5.00000      -     -    0s
H    0     0                       5.0000000    5.00000  0.00%     -    0s

Explored 1 nodes (3 simplex iterations) in 0.06 seconds
Thread count was 4 (of 4 available processors)

Solution count 1: 5 

Optimal solution found (tolerance 1.00e-04)
Best objective 5.000000003306e+00, best bound 5.000000003306e+00, gap 0.0000%
Optimize a model with 10 rows, 5 columns and 28 nonzeros
Variable types: 3 continuous, 2 integer (2 binary)
Coefficient statistics:
  Matrix range     [5e-09, 4e+00]
  Objective range  [1e+00, 1e+00]
  Bounds range     [1e+00, 4e+00]
  RHS range        [9e-09, 8e+00]
Presolve removed 4 rows and 1 columns
Presolve time: 0.00s
Presolved: 6 rows, 4 columns, 15 nonzeros
Variable types: 3 continuous, 1 integer (1 binary)

Root relaxation: objective 5.499892e+00, 4 iterations, 0.00 seconds

    Nodes    |    Current Node    |     Objective Bounds      |     Work
 Expl Unexpl |  Obj  Depth IntInf | Incumbent    BestBd   Gap | It/Node Time

     0     0    5.49989    0    1          -    5.49989      -     -    0s
H    0     0                       5.5000000    5.49989  0.00%     -    0s

Explored 1 nodes (4 simplex iterations) in 0.06 seconds
Thread count was 4 (of 4 available processors)

Solution count 1: 5.5 

Optimal solution found (tolerance 1.00e-04)
Best objective 5.499999997429e+00, best bound 5.499892439348e+00, gap 0.0020%

Gurobi 8.1.1 (win64, Python) logging started 10/10/19 13:15:50

Academic license - for non-commercial use only

Gurobi 8.1.1 (win64, Python) logging started 10/10/19 13:16:53

Academic license - for non-commercial use only

Gurobi 8.1.1 (win64, Python) logging started 10/10/19 13:19:45

Academic license - for non-commercial use only

Gurobi 8.1.1 (win64, Python) logging started 10/10/19 13:20:11

Academic license - for non-commercial use only

Gurobi 8.1.1 (win64, Python) logging started 10/10/19 13:23:13

Academic license - for non-commercial use only

Gurobi 8.1.1 (win64, Python) logging started 10/10/19 13:26:58

Academic license - for non-commercial use only
Warning: Q constraint 0 doesn't have a name
Warning: Q constraint 0 doesn't have a name
Warning: Q constraint 0 doesn't have a name

Gurobi 8.1.1 (win64, Python) logging started 10/10/19 13:29:12

Academic license - for non-commercial use only
Warning: Q constraint 0 doesn't have a name
Warning: default Q constraint names used to write mps file

Gurobi 8.1.1 (win64, Python) logging started 10/10/19 13:29:45

Academic license - for non-commercial use only
Warning: Q constraint 0 doesn't have a name

Gurobi 8.1.1 (win64, Python) logging started 10/10/19 13:31:19

Academic license - for non-commercial use only

Gurobi 8.1.1 (win64, Python) logging started 10/10/19 13:33:00

Academic license - for non-commercial use only

Gurobi 8.1.1 (win64, Python) logging started 10/10/19 13:44:44

Academic license - for non-commercial use only

Gurobi 8.1.1 (win64, Python) logging started 10/10/19 13:56:09

Academic license - for non-commercial use only

Gurobi 8.1.1 (win64, Python) logging started 10/10/19 13:57:09

Academic license - for non-commercial use only

Gurobi 8.1.1 (win64, Python) logging started 10/10/19 13:58:29

Academic license - for non-commercial use only

Gurobi 8.1.1 (win64, Python) logging started 10/10/19 13:58:47

Academic license - for non-commercial use only

Gurobi 8.1.1 (win64, Python) logging started 10/10/19 13:59:39

Academic license - for non-commercial use only

Gurobi 8.1.1 (win64, Python) logging started 10/10/19 14:01:57

Academic license - for non-commercial use only

Gurobi 8.1.1 (win64, Python) logging started 10/10/19 14:05:30

Academic license - for non-commercial use only

Gurobi 8.1.1 (win64, Python) logging started 10/10/19 14:06:52

Academic license - for non-commercial use only

Gurobi 8.1.1 (win64, Python) logging started 10/10/19 14:15:41

Academic license - for non-commercial use only

Gurobi 8.1.1 (win64, Python) logging started 10/10/19 14:22:35

Academic license - for non-commercial use only

Gurobi 8.1.1 (win64, Python) logging started 10/10/19 14:22:55

Academic license - for non-commercial use only

Gurobi 8.1.1 (win64, Python) logging started 10/10/19 14:23:08

Academic license - for non-commercial use only

Gurobi 8.1.1 (win64, Python) logging started 10/10/19 14:23:40

Academic license - for non-commercial use only
